WARNING: for repeatability, setting FPU to use double precision
============================[ Problem Statistics ]=============================
|                                                                             |
|  Number of variables:            50                                         |
|  Number of clauses:             218                                         |
|  Parse time:                   0.00 s                                       |
|                                                                             |
============================[ Search Statistics ]==============================
| Conflicts |          ORIGINAL         |          LEARNT          | Progress |
|           |    Vars  Clauses Literals |    Limit  Clauses Lit/Cl |          |
===============================================================================
|       100 |      45      206      618 |       79       39      4 | 10.120 % |
===============================================================================
restarts              : 2
conflicts             : 105            (66372 /sec)
decisions             : 120            (0.00 % random) (75853 /sec)
propagations          : 1318           (833123 /sec)
conflict literals     : 410            (14.94 % deleted)
Memory used           : 20.00 MB
CPU time              : 0.001582 s

UNSATISFIABLE
